\ Equation counts
\     Total        E        G        L        N        X        C        B
\	250	250	0	0
\
\ Variable counts
\                  x        b        i      s1s      s2s       sc       si
\     Total     cont   binary  integer     sos1     sos2    scont     sint
\	30	30

\ Nonzero counts
\     Total    const       NL      DLL
\
\
Minimize
 obj: [ - 21.0 x_1 * x_2 - 24.5 x_1 * x_3 - 23.0 x_1 * x_6 + 3.5 x_1 * x_7 - 11.5 x_1 * x_8 - 17.0 x_1 * x_9 - 22.5 x_1 * x_10 + 2.0 x_1 * x_11 + 3.0 x_1 * x_12 + 7.0 x_1 * x_13 - 24.0 x_1 * x_14 + 4.0 x_1 * x_16 - 14.5 x_1 * x_17 - 24.5 x_1 * x_18 + 22.0 x_1 * x_19 + 12.5 x_1 * x_20 + 0.5 x_1 * x_21 + 14.5 x_1 * x_25 + 22.5 x_1 * x_26 - 21.0 x_1 * x_27 - 4.5 x_1 * x_28 + 10.0 x_1 * x_29 - 11.0 x_1 * x_30 - 21.0 x_2 * x_1 + 13.5 x_2 * x_2 - 5.0 x_2 * x_4 - 18.0 x_2 * x_5 + 16.0 x_2 * x_6 - 24.0 x_2 * x_7 + 15.0 x_2 * x_8 + 3.5 x_2 * x_9 - 15.0 x_2 * x_12 + 10.5 x_2 * x_13 - 2.5 x_2 * x_14 - 18.5 x_2 * x_16 - 14.5 x_2 * x_18 - 11.0 x_2 * x_19 - 11.0 x_2 * x_21 + 3.5 x_2 * x_22 + 12.0 x_2 * x_25 - 10.0 x_2 * x_27 - 20.0 x_2 * x_29 - 8.0 x_2 * x_30 - 24.5 x_3 * x_1 - 13.5 x_3 * x_4 - 20.0 x_3 * x_5 + 15.5 x_3 * x_6 + 8.0 x_3 * x_7 + 16.5 x_3 * x_9 + 2.5 x_3 * x_11 - 8.5 x_3 * x_12 - 18.0 x_3 * x_13 + 0.5 x_3 * x_14 - 10.5 x_3 * x_15 + 5.0 x_3 * x_16 - 2.0 x_3 * x_18 + 19.5 x_3 * x_21 - 8.5 x_3 * x_22 + 3.0 x_3 * x_23 - 8.5 x_3 * x_24 + 11.5 x_3 * x_26 + 6.0 x_3 * x_27 + 18.5 x_3 * x_28 - 18.0 x_3 * x_30 - 5.0 x_4 * x_2 - 13.5 x_4 * x_3 + 18.5 x_4 * x_5 + 15.0 x_4 * x_6 - 2.5 x_4 * x_8 + 8.0 x_4 * x_9 - 17.5 x_4 * x_10 - 20.5 x_4 * x_11 + 8.0 x_4 * x_12 - 24.0 x_4 * x_13 - 3.0 x_4 * x_14 + 21.0 x_4 * x_16 - 11.0 x_4 * x_17 + 15.0 x_4 * x_18 + 22.5 x_4 * x_20 + 20.5 x_4 * x_21 - 5.0 x_4 * x_22 + 18.0 x_4 * x_26 + 21.5 x_4 * x_29 - 15.0 x_4 * x_30 - 18.0 x_5 * x_2 - 20.0 x_5 * x_3 + 18.5 x_5 * x_4 + 1.0 x_5 * x_6 - 6.5 x_5 * x_7 + 2.0 x_5 * x_8 + 8.0 x_5 * x_10 - 3.0 x_5 * x_11 - 19.5 x_5 * x_13 - 5.5 x_5 * x_18 - 16.5 x_5 * x_19 + 23.0 x_5 * x_20 + 14.5 x_5 * x_21 + 24.0 x_5 * x_22 - 7.5 x_5 * x_23 - 9.5 x_5 * x_25 + 14.0 x_5 * x_26 + 13.0 x_5 * x_27 - 21.5 x_5 * x_28 + 5.5 x_5 * x_29 + 24.5 x_5 * x_30 - 23.0 x_6 * x_1 + 16.0 x_6 * x_2 + 15.5 x_6 * x_3 + 15.0 x_6 * x_4 + 1.0 x_6 * x_5 - 18.5 x_6 * x_6 - 24.0 x_6 * x_8 - 8.5 x_6 * x_9 - 14.5 x_6 * x_10 + 2.0 x_6 * x_11 - 4.0 x_6 * x_12 - 17.0 x_6 * x_14 - 2.5 x_6 * x_17 - 20.5 x_6 * x_18 + 23.5 x_6 * x_19 - 1.5 x_6 * x_20 - 0.5 x_6 * x_22 - 23.5 x_6 * x_24 - 6.5 x_6 * x_25 + 11.5 x_6 * x_26 - 15.5 x_6 * x_28 - 5.5 x_6 * x_29 + 3.5 x_7 * x_1 - 24.0 x_7 * x_2 + 8.0 x_7 * x_3 - 6.5 x_7 * x_5 + 11.0 x_7 * x_7 + 4.0 x_7 * x_8 + 19.0 x_7 * x_10 + 12.0 x_7 * x_11 - 2.5 x_7 * x_12 - 18.5 x_7 * x_16 - 4.5 x_7 * x_18 + 4.5 x_7 * x_21 - 8.5 x_7 * x_22 + 15.5 x_7 * x_25 + 17.5 x_7 * x_26 + 2.5 x_7 * x_27 - 23.5 x_7 * x_28 - 20.5 x_7 * x_29 - 21.5 x_7 * x_30 - 11.5 x_8 * x_1 + 15.0 x_8 * x_2 - 2.5 x_8 * x_4 + 2.0 x_8 * x_5 - 24.0 x_8 * x_6 + 4.0 x_8 * x_7 - 18.5 x_8 * x_8 - 24.0 x_8 * x_9 - 23.5 x_8 * x_11 + 19.5 x_8 * x_12 + 3.0 x_8 * x_14 - 9.5 x_8 * x_17 - 14.5 x_8 * x_18 - 4.5 x_8 * x_19 + 1.0 x_8 * x_21 - 1.0 x_8 * x_22 - 11.0 x_8 * x_23 - 24.5 x_8 * x_24 - 7.0 x_8 * x_25 - 3.0 x_8 * x_27 - 14.5 x_8 * x_28 + 1.0 x_8 * x_29 - 17.0 x_9 * x_1 + 3.5 x_9 * x_2 + 16.5 x_9 * x_3 + 8.0 x_9 * x_4 - 8.5 x_9 * x_6 - 24.0 x_9 * x_8 - 6.5 x_9 * x_10 - 9.0 x_9 * x_11 + 9.5 x_9 * x_12 - 19.0 x_9 * x_15 + 22.5 x_9 * x_17 - 24.5 x_9 * x_18 + 20.5 x_9 * x_19 - 8.5 x_9 * x_20 + 16.5 x_9 * x_21 - 1.0 x_9 * x_22 + 10.0 x_9 * x_23 + 3.0 x_9 * x_25 - 18.0 x_9 * x_26 + 12.5 x_9 * x_27 + 4.0 x_9 * x_28 + 20.0 x_9 * x_29 + 6.0 x_9 * x_30 - 22.5 x_10 * x_1 - 17.5 x_10 * x_4 + 8.0 x_10 * x_5 - 14.5 x_10 * x_6 + 19.0 x_10 * x_7 - 6.5 x_10 * x_9 + 9.0 x_10 * x_10 + 24.0 x_10 * x_12 - 17.5 x_10 * x_13 + 4.0 x_10 * x_15 - 10.0 x_10 * x_19 - 21.5 x_10 * x_20 - 9.0 x_10 * x_21 + 9.5 x_10 * x_24 + 3.0 x_10 * x_25 + 20.5 x_10 * x_26 - 12.5 x_10 * x_27 - 1.0 x_10 * x_30 + 2.0 x_11 * x_1 + 2.5 x_11 * x_3 - 20.5 x_11 * x_4 - 3.0 x_11 * x_5 + 2.0 x_11 * x_6 + 12.0 x_11 * x_7 - 23.5 x_11 * x_8 - 9.0 x_11 * x_9 + 11.5 x_11 * x_11 - 22.0 x_11 * x_12 + 22.0 x_11 * x_13 - 20.0 x_11 * x_16 - 24.0 x_11 * x_19 - 13.5 x_11 * x_20 + 4.0 x_11 * x_23 + 13.0 x_11 * x_24 - 8.0 x_11 * x_25 + 21.0 x_11 * x_27 + 17.5 x_11 * x_29 + 3.0 x_12 * x_1 - 15.0 x_12 * x_2 - 8.5 x_12 * x_3 + 8.0 x_12 * x_4 - 4.0 x_12 * x_6 - 2.5 x_12 * x_7 + 19.5 x_12 * x_8 + 9.5 x_12 * x_9 + 24.0 x_12 * x_10 - 22.0 x_12 * x_11 - 14.5 x_12 * x_12 - 18.0 x_12 * x_14 - 5.0 x_12 * x_15 + 15.5 x_12 * x_16 - 5.5 x_12 * x_17 - 15.0 x_12 * x_18 - 10.5 x_12 * x_20 + 17.5 x_12 * x_22 - 20.0 x_12 * x_23 - 11.0 x_12 * x_25 - 13.5 x_12 * x_26 - 20.0 x_12 * x_27 + 4.0 x_12 * x_28 - 15.5 x_12 * x_29 - 15.5 x_12 * x_30 + 7.0 x_13 * x_1 + 10.5 x_13 * x_2 - 18.0 x_13 * x_3 - 24.0 x_13 * x_4 - 19.5 x_13 * x_5 - 17.5 x_13 * x_10 + 22.0 x_13 * x_11 - 6.5 x_13 * x_14 + 7.0 x_13 * x_18 - 16.5 x_13 * x_19 - 10.5 x_13 * x_21 - 23.0 x_13 * x_24 + 8.5 x_13 * x_25 - 13.5 x_13 * x_26 + 15.5 x_13 * x_27 - 24.0 x_14 * x_1 - 2.5 x_14 * x_2 + 0.5 x_14 * x_3 - 3.0 x_14 * x_4 - 17.0 x_14 * x_6 + 3.0 x_14 * x_8 - 18.0 x_14 * x_12 - 6.5 x_14 * x_13 + 8.0 x_14 * x_14 - 14.0 x_14 * x_15 + 9.0 x_14 * x_18 - 17.0 x_14 * x_19 + 9.5 x_14 * x_20 + 5.5 x_14 * x_21 - 23.0 x_14 * x_25 - 14.5 x_14 * x_27 - 14.0 x_14 * x_28 + 4.0 x_14 * x_29 - 10.5 x_15 * x_3 - 19.0 x_15 * x_9 + 4.0 x_15 * x_10 - 5.0 x_15 * x_12 - 14.0 x_15 * x_14 + 22.0 x_15 * x_15 - 0.5 x_15 * x_16 + 24.5 x_15 * x_17 - 6.5 x_15 * x_20 + 8.5 x_15 * x_21 - 7.0 x_15 * x_22 + 20.5 x_15 * x_28 - 7.0 x_15 * x_29 + 4.0 x_16 * x_1 - 18.5 x_16 * x_2 + 5.0 x_16 * x_3 + 21.0 x_16 * x_4 - 18.5 x_16 * x_7 - 20.0 x_16 * x_11 + 15.5 x_16 * x_12 - 0.5 x_16 * x_15 - 1.5 x_16 * x_18 + 18.0 x_16 * x_19 - 17.0 x_16 * x_21 + 21.5 x_16 * x_22 + 5.5 x_16 * x_23 + 15.0 x_16 * x_24 - 22.0 x_16 * x_25 + 22.0 x_16 * x_26 - 13.5 x_16 * x_29 - 6.0 x_16 * x_30 - 14.5 x_17 * x_1 - 11.0 x_17 * x_4 - 2.5 x_17 * x_6 - 9.5 x_17 * x_8 + 22.5 x_17 * x_9 - 5.5 x_17 * x_12 + 24.5 x_17 * x_15 - 1.0 x_17 * x_17 - 3.5 x_17 * x_18 + 4.0 x_17 * x_19 - 19.5 x_17 * x_20 + 21.0 x_17 * x_21 - 16.0 x_17 * x_26 - 24.5 x_17 * x_29 + 2.5 x_17 * x_30 - 24.5 x_18 * x_1 - 14.5 x_18 * x_2 - 2.0 x_18 * x_3 + 15.0 x_18 * x_4 - 5.5 x_18 * x_5 - 20.5 x_18 * x_6 - 4.5 x_18 * x_7 - 14.5 x_18 * x_8 - 24.5 x_18 * x_9 - 15.0 x_18 * x_12 + 7.0 x_18 * x_13 + 9.0 x_18 * x_14 - 1.5 x_18 * x_16 - 3.5 x_18 * x_17 - 0.5 x_18 * x_18 - 1.5 x_18 * x_20 - 0.5 x_18 * x_22 + 22.5 x_18 * x_24 - 19.0 x_18 * x_25 - 22.0 x_18 * x_26 + 16.5 x_18 * x_27 + 10.5 x_18 * x_28 - 5.5 x_18 * x_29 - 9.5 x_18 * x_30 + 22.0 x_19 * x_1 - 11.0 x_19 * x_2 - 16.5 x_19 * x_5 + 23.5 x_19 * x_6 - 4.5 x_19 * x_8 + 20.5 x_19 * x_9 - 10.0 x_19 * x_10 - 24.0 x_19 * x_11 - 16.5 x_19 * x_13 - 17.0 x_19 * x_14 + 18.0 x_19 * x_16 + 4.0 x_19 * x_17 - 20.5 x_19 * x_21 + 22.0 x_19 * x_22 - 24.0 x_19 * x_23 - 4.5 x_19 * x_24 - 6.5 x_19 * x_25 + 14.0 x_19 * x_26 + 21.5 x_19 * x_27 - 9.5 x_19 * x_29 + 19.5 x_19 * x_30 + 12.5 x_20 * x_1 + 22.5 x_20 * x_4 + 23.0 x_20 * x_5 - 1.5 x_20 * x_6 - 8.5 x_20 * x_9 - 21.5 x_20 * x_10 - 13.5 x_20 * x_11 - 10.5 x_20 * x_12 + 9.5 x_20 * x_14 - 6.5 x_20 * x_15 - 19.5 x_20 * x_17 - 1.5 x_20 * x_18 + 19.0 x_20 * x_20 + 24.5 x_20 * x_21 - 5.0 x_20 * x_22 - 20.0 x_20 * x_24 - 11.5 x_20 * x_25 + 16.0 x_20 * x_26 - 4.5 x_20 * x_27 + 23.0 x_20 * x_29 + 0.5 x_21 * x_1 - 11.0 x_21 * x_2 + 19.5 x_21 * x_3 + 20.5 x_21 * x_4 + 14.5 x_21 * x_5 + 4.5 x_21 * x_7 + 1.0 x_21 * x_8 + 16.5 x_21 * x_9 - 9.0 x_21 * x_10 - 10.5 x_21 * x_13 + 5.5 x_21 * x_14 + 8.5 x_21 * x_15 - 17.0 x_21 * x_16 + 21.0 x_21 * x_17 - 20.5 x_21 * x_19 + 24.5 x_21 * x_20 + 8.5 x_21 * x_21 + 9.5 x_21 * x_24 + 13.0 x_21 * x_25 + 2.5 x_21 * x_27 - 5.0 x_21 * x_30 + 3.5 x_22 * x_2 - 8.5 x_22 * x_3 - 5.0 x_22 * x_4 + 24.0 x_22 * x_5 - 0.5 x_22 * x_6 - 8.5 x_22 * x_7 - 1.0 x_22 * x_8 - 1.0 x_22 * x_9 + 17.5 x_22 * x_12 - 7.0 x_22 * x_15 + 21.5 x_22 * x_16 - 0.5 x_22 * x_18 + 22.0 x_22 * x_19 - 5.0 x_22 * x_20 + 13.0 x_22 * x_23 + 14.5 x_22 * x_27 + 23.5 x_22 * x_28 + 9.0 x_22 * x_29 - 1.0 x_22 * x_30 + 3.0 x_23 * x_3 - 7.5 x_23 * x_5 - 11.0 x_23 * x_8 + 10.0 x_23 * x_9 + 4.0 x_23 * x_11 - 20.0 x_23 * x_12 + 5.5 x_23 * x_16 - 24.0 x_23 * x_19 + 13.0 x_23 * x_22 + 7.0 x_23 * x_24 + 10.5 x_23 * x_25 - 1.0 x_23 * x_26 + 20.5 x_23 * x_27 + 24.5 x_23 * x_28 + 6.0 x_23 * x_29 + 18.5 x_23 * x_30 - 8.5 x_24 * x_3 - 23.5 x_24 * x_6 - 24.5 x_24 * x_8 + 9.5 x_24 * x_10 + 13.0 x_24 * x_11 - 23.0 x_24 * x_13 + 15.0 x_24 * x_16 + 22.5 x_24 * x_18 - 4.5 x_24 * x_19 - 20.0 x_24 * x_20 + 9.5 x_24 * x_21 + 7.0 x_24 * x_23 - 9.5 x_24 * x_27 - 7.5 x_24 * x_30 + 14.5 x_25 * x_1 + 12.0 x_25 * x_2 - 9.5 x_25 * x_5 - 6.5 x_25 * x_6 + 15.5 x_25 * x_7 - 7.0 x_25 * x_8 + 3.0 x_25 * x_9 + 3.0 x_25 * x_10 - 8.0 x_25 * x_11 - 11.0 x_25 * x_12 + 8.5 x_25 * x_13 - 23.0 x_25 * x_14 - 22.0 x_25 * x_16 - 19.0 x_25 * x_18 - 6.5 x_25 * x_19 - 11.5 x_25 * x_20 + 13.0 x_25 * x_21 + 10.5 x_25 * x_23 + 21.5 x_25 * x_25 - 20.0 x_25 * x_26 - 1.0 x_25 * x_27 + 16.5 x_25 * x_28 + 16.0 x_25 * x_29 + 22.5 x_26 * x_1 + 11.5 x_26 * x_3 + 18.0 x_26 * x_4 + 14.0 x_26 * x_5 + 11.5 x_26 * x_6 + 17.5 x_26 * x_7 - 18.0 x_26 * x_9 + 20.5 x_26 * x_10 - 13.5 x_26 * x_12 - 13.5 x_26 * x_13 + 22.0 x_26 * x_16 - 16.0 x_26 * x_17 - 22.0 x_26 * x_18 + 14.0 x_26 * x_19 + 16.0 x_26 * x_20 - 1.0 x_26 * x_23 - 20.0 x_26 * x_25 + 12.0 x_26 * x_26 - 19.5 x_26 * x_28 + 10.0 x_26 * x_29 - 21.0 x_27 * x_1 - 10.0 x_27 * x_2 + 6.0 x_27 * x_3 + 13.0 x_27 * x_5 + 2.5 x_27 * x_7 - 3.0 x_27 * x_8 + 12.5 x_27 * x_9 - 12.5 x_27 * x_10 + 21.0 x_27 * x_11 - 20.0 x_27 * x_12 + 15.5 x_27 * x_13 - 14.5 x_27 * x_14 + 16.5 x_27 * x_18 + 21.5 x_27 * x_19 - 4.5 x_27 * x_20 + 2.5 x_27 * x_21 + 14.5 x_27 * x_22 + 20.5 x_27 * x_23 - 9.5 x_27 * x_24 - 1.0 x_27 * x_25 - 1.5 x_27 * x_28 - 24.0 x_27 * x_29 - 4.5 x_28 * x_1 + 18.5 x_28 * x_3 - 21.5 x_28 * x_5 - 15.5 x_28 * x_6 - 23.5 x_28 * x_7 - 14.5 x_28 * x_8 + 4.0 x_28 * x_9 + 4.0 x_28 * x_12 - 14.0 x_28 * x_14 + 20.5 x_28 * x_15 + 10.5 x_28 * x_18 + 23.5 x_28 * x_22 + 24.5 x_28 * x_23 + 16.5 x_28 * x_25 - 19.5 x_28 * x_26 - 1.5 x_28 * x_27 + 9.5 x_28 * x_28 + 13.0 x_28 * x_30 + 10.0 x_29 * x_1 - 20.0 x_29 * x_2 + 21.5 x_29 * x_4 + 5.5 x_29 * x_5 - 5.5 x_29 * x_6 - 20.5 x_29 * x_7 + 1.0 x_29 * x_8 + 20.0 x_29 * x_9 + 17.5 x_29 * x_11 - 15.5 x_29 * x_12 + 4.0 x_29 * x_14 - 7.0 x_29 * x_15 - 13.5 x_29 * x_16 - 24.5 x_29 * x_17 - 5.5 x_29 * x_18 - 9.5 x_29 * x_19 + 23.0 x_29 * x_20 + 9.0 x_29 * x_22 + 6.0 x_29 * x_23 + 16.0 x_29 * x_25 + 10.0 x_29 * x_26 - 24.0 x_29 * x_27 + 17.5 x_29 * x_30 - 11.0 x_30 * x_1 - 8.0 x_30 * x_2 - 18.0 x_30 * x_3 - 15.0 x_30 * x_4 + 24.5 x_30 * x_5 - 21.5 x_30 * x_7 + 6.0 x_30 * x_9 - 1.0 x_30 * x_10 - 15.5 x_30 * x_12 - 6.0 x_30 * x_16 + 2.5 x_30 * x_17 - 9.5 x_30 * x_18 + 19.5 x_30 * x_19 - 5.0 x_30 * x_21 - 1.0 x_30 * x_22 + 18.5 x_30 * x_23 - 7.5 x_30 * x_24 + 13.0 x_30 * x_28 + 17.5 x_30 * x_29 + 16.5 x_30 * x_30 ] + 15.0 x_1 - 46.0 x_2 + 42.0 x_3 + 0.0 x_4 - 33.0 x_5 + 30.0 x_6 - 19.0 x_7 + 20.0 x_8 - 26.0 x_9 - 27.0 x_10 - 7.0 x_11 - 4.0 x_12 + 0.0 x_13 + 0.0 x_14 + 15.0 x_15 + 31.0 x_16 + 0.0 x_17 + 0.0 x_18 + 0.0 x_19 + 31.0 x_20 - 49.0 x_21 + 9.0 x_22 + 0.0 x_23 - 46.0 x_24 + 34.0 x_25 + 0.0 x_26 - 4.0 x_27 + 0.0 x_28 - 19.0 x_29 + 9.0 x_30

Subject To
 e2: [  x_1 * x_3 ] = 0.0
 e3: [  x_1 * x_9 ] = 0.0
 e4: [  x_1 * x_10 ] = 0.0
 e5: [  x_1 * x_11 ] = 0.0
 e6: [  x_1 * x_17 ] = 0.0
 e7: [  x_1 * x_20 ] = 0.0
 e8: [  x_1 * x_21 ] = 0.0
 e9: [  x_1 * x_27 ] = 0.0
 e10: [  x_1 * x_28 ] = 0.0
 e11: [  x_2 * x_1 ] = 0.0
 e12: [  x_2 * x_16 ] = 0.0
 e13: [  x_2 * x_19 ] = 0.0
 e14: [  x_2 * x_21 ] = 0.0
 e15: [  x_2 * x_22 ] = 0.0
 e16: [  x_2 * x_25 ] = 0.0
 e17: [  x_2 * x_29 ] = 0.0
 e18: [  x_3 * x_5 ] = 0.0
 e19: [  x_3 * x_9 ] = 0.0
 e20: [  x_3 * x_11 ] = 0.0
 e21: [  x_3 * x_12 ] = 0.0
 e22: [  x_3 * x_15 ] = 0.0
 e23: [  x_3 * x_18 ] = 0.0
 e24: [  x_3 * x_23 ] = 0.0
 e25: [  x_3 * x_24 ] = 0.0
 e26: [  x_3 * x_26 ] = 0.0
 e27: [  x_4 * x_2 ] = 0.0
 e28: [  x_4 * x_5 ] = 0.0
 e29: [  x_4 * x_8 ] = 0.0
 e30: [  x_4 * x_11 ] = 0.0
 e31: [  x_4 * x_13 ] = 0.0
 e32: [  x_4 * x_16 ] = 0.0
 e33: [  x_4 * x_18 ] = 0.0
 e34: [  x_4 * x_20 ] = 0.0
 e35: [  x_4 * x_22 ] = 0.0
 e36: [  x_4 * x_29 ] = 0.0
 e37: [  x_4 * x_30 ] = 0.0
 e38: [  x_5 * x_2 ] = 0.0
 e39: [  x_5 * x_3 ] = 0.0
 e40: [  x_5 * x_6 ] = 0.0
 e41: [  x_5 * x_7 ] = 0.0
 e42: [  x_5 * x_10 ] = 0.0
 e43: [  x_5 * x_11 ] = 0.0
 e44: [  x_5 * x_13 ] = 0.0
 e45: [  x_5 * x_21 ] = 0.0
 e46: [  x_5 * x_22 ] = 0.0
 e47: [  x_5 * x_25 ] = 0.0
 e48: [  x_5 * x_26 ] = 0.0
 e49: [  x_5 * x_27 ] = 0.0
 e50: [  x_5 * x_29 ] = 0.0
 e51: [  x_6 * x_1 ] = 0.0
 e52: [  x_6 * x_4 ] = 0.0
 e53: [  x_6 * x_10 ] = 0.0
 e54: [  x_6 * x_12 ] = 0.0
 e55: [  x_6 * x_17 ] = 0.0
 e56: [  x_6 * x_22 ] = 0.0
 e57: [  x_6 * x_25 ] = 0.0
 e58: [  x_6 * x_28 ] = 0.0
 e59: [  x_6 * x_29 ] = 0.0
 e60: [  x_7 * x_2 ] = 0.0
 e61: [  x_7 * x_3 ] = 0.0
 e62: [  x_7 * x_5 ] = 0.0
 e63: [  x_7 * x_7 ] = 0.0
 e64: [  x_7 * x_10 ] = 0.0
 e65: [  x_7 * x_18 ] = 0.0
 e66: [  x_7 * x_22 ] = 0.0
 e67: [  x_7 * x_25 ] = 0.0
 e68: [  x_7 * x_27 ] = 0.0
 e69: [  x_7 * x_29 ] = 0.0
 e70: [  x_7 * x_30 ] = 0.0
 e71: [  x_8 * x_2 ] = 0.0
 e72: [  x_8 * x_4 ] = 0.0
 e73: [  x_8 * x_5 ] = 0.0
 e74: [  x_8 * x_7 ] = 0.0
 e75: [  x_8 * x_8 ] = 0.0
 e76: [  x_8 * x_9 ] = 0.0
 e77: [  x_8 * x_19 ] = 0.0
 e78: [  x_9 * x_2 ] = 0.0
 e79: [  x_9 * x_3 ] = 0.0
 e80: [  x_9 * x_4 ] = 0.0
 e81: [  x_9 * x_15 ] = 0.0
 e82: [  x_9 * x_19 ] = 0.0
 e83: [  x_9 * x_20 ] = 0.0
 e84: [  x_9 * x_21 ] = 0.0
 e85: [  x_9 * x_27 ] = 0.0
 e86: [  x_9 * x_28 ] = 0.0
 e87: [  x_9 * x_30 ] = 0.0
 e88: [  x_10 * x_4 ] = 0.0
 e89: [  x_10 * x_10 ] = 0.0
 e90: [  x_10 * x_13 ] = 0.0
 e91: [  x_10 * x_20 ] = 0.0
 e92: [  x_10 * x_24 ] = 0.0
 e93: [  x_11 * x_1 ] = 0.0
 e94: [  x_11 * x_5 ] = 0.0
 e95: [  x_11 * x_11 ] = 0.0
 e96: [  x_11 * x_12 ] = 0.0
 e97: [  x_11 * x_19 ] = 0.0
 e98: [  x_11 * x_24 ] = 0.0
 e99: [  x_11 * x_27 ] = 0.0
 e100: [  x_12 * x_6 ] = 0.0
 e101: [  x_12 * x_7 ] = 0.0
 e102: [  x_12 * x_8 ] = 0.0
 e103: [  x_12 * x_9 ] = 0.0
 e104: [  x_12 * x_10 ] = 0.0
 e105: [  x_12 * x_12 ] = 0.0
 e106: [  x_12 * x_26 ] = 0.0
 e107: [  x_12 * x_28 ] = 0.0
 e108: [  x_13 * x_2 ] = 0.0
 e109: [  x_13 * x_3 ] = 0.0
 e110: [  x_13 * x_21 ] = 0.0
 e111: [  x_13 * x_24 ] = 0.0
 e112: [  x_13 * x_26 ] = 0.0
 e113: [  x_14 * x_2 ] = 0.0
 e114: [  x_14 * x_6 ] = 0.0
 e115: [  x_14 * x_12 ] = 0.0
 e116: [  x_14 * x_13 ] = 0.0
 e117: [  x_14 * x_15 ] = 0.0
 e118: [  x_14 * x_27 ] = 0.0
 e119: [  x_14 * x_29 ] = 0.0
 e120: [  x_15 * x_10 ] = 0.0
 e121: [  x_15 * x_14 ] = 0.0
 e122: [  x_15 * x_17 ] = 0.0
 e123: [  x_15 * x_28 ] = 0.0
 e124: [  x_16 * x_1 ] = 0.0
 e125: [  x_16 * x_3 ] = 0.0
 e126: [  x_16 * x_4 ] = 0.0
 e127: [  x_16 * x_7 ] = 0.0
 e128: [  x_16 * x_11 ] = 0.0
 e129: [  x_16 * x_18 ] = 0.0
 e130: [  x_16 * x_19 ] = 0.0
 e131: [  x_16 * x_23 ] = 0.0
 e132: [  x_16 * x_29 ] = 0.0
 e133: [  x_17 * x_6 ] = 0.0
 e134: [  x_17 * x_9 ] = 0.0
 e135: [  x_17 * x_12 ] = 0.0
 e136: [  x_17 * x_15 ] = 0.0
 e137: [  x_17 * x_17 ] = 0.0
 e138: [  x_17 * x_18 ] = 0.0
 e139: [  x_17 * x_19 ] = 0.0
 e140: [  x_17 * x_29 ] = 0.0
 e141: [  x_18 * x_1 ] = 0.0
 e142: [  x_18 * x_2 ] = 0.0
 e143: [  x_18 * x_8 ] = 0.0
 e144: [  x_18 * x_9 ] = 0.0
 e145: [  x_18 * x_12 ] = 0.0
 e146: [  x_18 * x_13 ] = 0.0
 e147: [  x_18 * x_14 ] = 0.0
 e148: [  x_18 * x_16 ] = 0.0
 e149: [  x_18 * x_17 ] = 0.0
 e150: [  x_18 * x_24 ] = 0.0
 e151: [  x_18 * x_26 ] = 0.0
 e152: [  x_18 * x_29 ] = 0.0
 e153: [  x_19 * x_1 ] = 0.0
 e154: [  x_19 * x_2 ] = 0.0
 e155: [  x_19 * x_6 ] = 0.0
 e156: [  x_19 * x_13 ] = 0.0
 e157: [  x_19 * x_14 ] = 0.0
 e158: [  x_19 * x_17 ] = 0.0
 e159: [  x_19 * x_21 ] = 0.0
 e160: [  x_19 * x_23 ] = 0.0
 e161: [  x_19 * x_27 ] = 0.0
 e162: [  x_19 * x_29 ] = 0.0
 e163: [  x_19 * x_30 ] = 0.0
 e164: [  x_20 * x_5 ] = 0.0
 e165: [  x_20 * x_10 ] = 0.0
 e166: [  x_20 * x_11 ] = 0.0
 e167: [  x_20 * x_14 ] = 0.0
 e168: [  x_20 * x_15 ] = 0.0
 e169: [  x_20 * x_20 ] = 0.0
 e170: [  x_20 * x_21 ] = 0.0
 e171: [  x_20 * x_25 ] = 0.0
 e172: [  x_20 * x_27 ] = 0.0
 e173: [  x_21 * x_3 ] = 0.0
 e174: [  x_21 * x_4 ] = 0.0
 e175: [  x_21 * x_14 ] = 0.0
 e176: [  x_21 * x_15 ] = 0.0
 e177: [  x_21 * x_19 ] = 0.0
 e178: [  x_21 * x_20 ] = 0.0
 e179: [  x_21 * x_21 ] = 0.0
 e180: [  x_21 * x_25 ] = 0.0
 e181: [  x_21 * x_30 ] = 0.0
 e182: [  x_22 * x_2 ] = 0.0
 e183: [  x_22 * x_7 ] = 0.0
 e184: [  x_22 * x_8 ] = 0.0
 e185: [  x_22 * x_16 ] = 0.0
 e186: [  x_22 * x_19 ] = 0.0
 e187: [  x_22 * x_29 ] = 0.0
 e188: [  x_23 * x_8 ] = 0.0
 e189: [  x_23 * x_19 ] = 0.0
 e190: [  x_23 * x_22 ] = 0.0
 e191: [  x_23 * x_24 ] = 0.0
 e192: [  x_23 * x_26 ] = 0.0
 e193: [  x_23 * x_29 ] = 0.0
 e194: [  x_24 * x_3 ] = 0.0
 e195: [  x_24 * x_11 ] = 0.0
 e196: [  x_24 * x_16 ] = 0.0
 e197: [  x_24 * x_19 ] = 0.0
 e198: [  x_25 * x_1 ] = 0.0
 e199: [  x_25 * x_2 ] = 0.0
 e200: [  x_25 * x_6 ] = 0.0
 e201: [  x_25 * x_8 ] = 0.0
 e202: [  x_25 * x_10 ] = 0.0
 e203: [  x_25 * x_13 ] = 0.0
 e204: [  x_25 * x_16 ] = 0.0
 e205: [  x_25 * x_20 ] = 0.0
 e206: [  x_25 * x_23 ] = 0.0
 e207: [  x_25 * x_29 ] = 0.0
 e208: [  x_26 * x_7 ] = 0.0
 e209: [  x_26 * x_9 ] = 0.0
 e210: [  x_26 * x_18 ] = 0.0
 e211: [  x_26 * x_19 ] = 0.0
 e212: [  x_27 * x_1 ] = 0.0
 e213: [  x_27 * x_3 ] = 0.0
 e214: [  x_27 * x_7 ] = 0.0
 e215: [  x_27 * x_11 ] = 0.0
 e216: [  x_27 * x_13 ] = 0.0
 e217: [  x_27 * x_14 ] = 0.0
 e218: [  x_27 * x_18 ] = 0.0
 e219: [  x_27 * x_22 ] = 0.0
 e220: [  x_27 * x_23 ] = 0.0
 e221: [  x_27 * x_24 ] = 0.0
 e222: [  x_27 * x_25 ] = 0.0
 e223: [  x_27 * x_28 ] = 0.0
 e224: [  x_27 * x_29 ] = 0.0
 e225: [  x_28 * x_6 ] = 0.0
 e226: [  x_28 * x_7 ] = 0.0
 e227: [  x_28 * x_9 ] = 0.0
 e228: [  x_28 * x_14 ] = 0.0
 e229: [  x_28 * x_22 ] = 0.0
 e230: [  x_28 * x_23 ] = 0.0
 e231: [  x_28 * x_26 ] = 0.0
 e232: [  x_28 * x_27 ] = 0.0
 e233: [  x_28 * x_28 ] = 0.0
 e234: [  x_29 * x_6 ] = 0.0
 e235: [  x_29 * x_7 ] = 0.0
 e236: [  x_29 * x_8 ] = 0.0
 e237: [  x_29 * x_9 ] = 0.0
 e238: [  x_29 * x_14 ] = 0.0
 e239: [  x_29 * x_16 ] = 0.0
 e240: [  x_29 * x_20 ] = 0.0
 e241: [  x_29 * x_22 ] = 0.0
 e242: [  x_29 * x_25 ] = 0.0
 e243: [  x_29 * x_26 ] = 0.0
 e244: [  x_29 * x_27 ] = 0.0
 e245: [  x_30 * x_7 ] = 0.0
 e246: [  x_30 * x_10 ] = 0.0
 e247: [  x_30 * x_19 ] = 0.0
 e248: [  x_30 * x_21 ] = 0.0
 e249: [  x_30 * x_23 ] = 0.0
 e250: [  x_30 * x_24 ] = 0.0
 e251: [  x_30 * x_30 ] = 0.0

Bounds
 x_1 <= 1.0
 x_2 <= 1.0
 x_3 <= 1.0
 x_4 <= 1.0
 x_5 <= 1.0
 x_6 <= 1.0
 x_7 <= 1.0
 x_8 <= 1.0
 x_9 <= 1.0
 x_10 <= 1.0
 x_11 <= 1.0
 x_12 <= 1.0
 x_13 <= 1.0
 x_14 <= 1.0
 x_15 <= 1.0
 x_16 <= 1.0
 x_17 <= 1.0
 x_18 <= 1.0
 x_19 <= 1.0
 x_20 <= 1.0
 x_21 <= 1.0
 x_22 <= 1.0
 x_23 <= 1.0
 x_24 <= 1.0
 x_25 <= 1.0
 x_26 <= 1.0
 x_27 <= 1.0
 x_28 <= 1.0
 x_29 <= 1.0
 x_30 <= 1.0

End